p cnf 590
-16 -158
-17 -161
-18 -164
-19 -167
-20 -170
-21 -173
-22 -176
-23 -179
-24 -182
-25 -185
-26 -188
-27 -191
-28 -194
-29 -197
-30 -200
-31 -202
-32 -204
-33 -206
-34 -208
-35 -210
-36 -212
-37 -214
-38 -216
-39 -218
-40 -220
-41 -222
-42 -224
-43 -226
-44 -228
-45 -230
-46 231
-47 -29
-47 30
29 -30 47
-48 29
-48 -30
-29 30 48
-49 -47
-49 -48
47 48 49
-50 -1
-50 -2
1 2 50
-51 -3
-51 -4
3 4 51
-52 -5
-52 -6
5 6 52
-53 -7
-53 -8
7 8 53
-54 -9
-54 -10
9 10 54
-55 -11
-55 -12
11 12 55
-56 -13
-56 -14
13 14 56
-57 50
-57 51
-50 -51 57
-58 52
-58 53
-52 -53 58
-59 54
-59 55
-54 -55 59
-60 -15
-60 56
15 -56 60
-61 57
-61 58
-57 -58 61
-62 59
-62 60
-59 -60 62
-63 61
-63 62
-61 -62 63
-64 -31
-64 -32
31 32 64
-65 -33
-65 -34
33 34 65
-66 -35
-66 -36
35 36 66
-67 -37
-67 -38
37 38 67
-68 -39
-68 -40
39 40 68
-69 -41
-69 -42
41 42 69
-70 -43
-70 -44
43 44 70
-71 64
-71 65
-64 -65 71
-72 66
-72 67
-66 -67 72
-73 68
-73 69
-68 -69 73
-74 -45
-74 70
45 -70 74
-75 71
-75 72
-71 -72 75
-76 73
-76 74
-73 -74 76
-77 75
-77 76
-75 -76 77
-78 31
-78 -49
-31 49 78
-79 -31
-79 49
31 -49 79
-80 -78
-80 -79
78 79 80
-81 16
-81 32
-16 -32 81
-82 -16
-82 -32
16 32 82
-83 -81
-83 -82
81 82 83
-84 17
-84 33
-17 -33 84
-85 -17
-85 -33
17 33 85
-86 -84
-86 -85
84 85 86
-87 18
-87 34
-18 -34 87
-88 -18
-88 -34
18 34 88
-89 -87
-89 -88
87 88 89
-90 19
-90 35
-19 -35 90
-91 -19
-91 -35
19 35 91
-92 -90
-92 -91
90 91 92
-93 20
-93 36
-20 -36 93
-94 -20
-94 -36
20 36 94
-95 -93
-95 -94
93 94 95
-96 21
-96 37
-21 -37 96
-97 -21
-97 -37
21 37 97
-98 -96
-98 -97
96 97 98
-99 22
-99 38
-22 -38 99
-100 -22
-100 -38
22 38 100
-101 -99
-101 -100
99 100 101
-102 23
-102 39
-23 -39 102
-103 -23
-103 -39
23 39 103
-104 -102
-104 -103
102 103 104
-105 24
-105 40
-24 -40 105
-106 -24
-106 -40
24 40 106
-107 -105
-107 -106
105 106 107
-108 25
-108 41
-25 -41 108
-109 -25
-109 -41
25 41 109
-110 -108
-110 -109
108 109 110
-111 26
-111 42
-26 -42 111
-112 -26
-112 -42
26 42 112
-113 -111
-113 -112
111 112 113
-114 27
-114 43
-27 -43 114
-115 -27
-115 -43
27 43 115
-116 -114
-116 -115
114 115 116
-117 28
-117 44
-28 -44 117
-118 -28
-118 -44
28 44 118
-119 -117
-119 -118
117 118 119
-120 29
-120 45
-29 -45 120
-121 -29
-121 -45
29 45 121
-122 -120
-122 -121
120 121 122
-123 -80
-123 -83
80 83 123
-124 -86
-124 -89
86 89 124
-125 -92
-125 -95
92 95 125
-126 -98
-126 -101
98 101 126
-127 -104
-127 -107
104 107 127
-128 -110
-128 -113
110 113 128
-129 -116
-129 -119
116 119 129
-130 123
-130 124
-123 -124 130
-131 125
-131 126
-125 -126 131
-132 127
-132 128
-127 -128 132
-133 -122
-133 129
122 -129 133
-134 130
-134 131
-130 -131 134
-135 132
-135 133
-132 -133 135
-136 134
-136 135
-134 -135 136
-137 -77
-137 136
77 -136 137
-138 46
-138 137
-46 -137 138
-139 63
-139 138
-63 -138 139
-140 -16
-140 49
16 -49 140
-141 -17
-141 -18
17 18 141
-142 -19
-142 -20
19 20 142
-143 -21
-143 -22
21 22 143
-144 -23
-144 -24
23 24 144
-145 -25
-145 -26
25 26 145
-146 -27
-146 -28
27 28 146
-147 140
-147 141
-140 -141 147
-148 142
-148 143
-142 -143 148
-149 144
-149 145
-144 -145 149
-150 -29
-150 146
29 -146 150
-151 147
-151 148
-147 -148 151
-152 149
-152 150
-149 -150 152
-153 151
-153 152
-151 -152 153
-154 -77
-154 153
77 -153 154
-155 63
-155 -137
-63 137 155
-156 1
-156 -63
-1 63 156
-157 -49
-157 63
49 -63 157
-158 -156
-158 -157
156 157 158
-159 2
-159 -63
-2 63 159
-160 16
-160 63
-16 -63 160
-161 -159
-161 -160
159 160 161
-162 3
-162 -63
-3 63 162
-163 17
-163 63
-17 -63 163
-164 -162
-164 -163
162 163 164
-165 4
-165 -63
-4 63 165
-166 18
-166 63
-18 -63 166
-167 -165
-167 -166
165 166 167
-168 5
-168 -63
-5 63 168
-169 19
-169 63
-19 -63 169
-170 -168
-170 -169
168 169 170
-171 6
-171 -63
-6 63 171
-172 20
-172 63
-20 -63 172
-173 -171
-173 -172
171 172 173
-174 7
-174 -63
-7 63 174
-175 21
-175 63
-21 -63 175
-176 -174
-176 -175
174 175 176
-177 8
-177 -63
-8 63 177
-178 22
-178 63
-22 -63 178
-179 -177
-179 -178
177 178 179
-180 9
-180 -63
-9 63 180
-181 23
-181 63
-23 -63 181
-182 -180
-182 -181
180 181 182
-183 10
-183 -63
-10 63 183
-184 24
-184 63
-24 -63 184
-185 -183
-185 -184
183 184 185
-186 11
-186 -63
-11 63 186
-187 25
-187 63
-25 -63 187
-188 -186
-188 -187
186 187 188
-189 12
-189 -63
-12 63 189
-190 26
-190 63
-26 -63 190
-191 -189
-191 -190
189 190 191
-192 13
-192 -63
-13 63 192
-193 27
-193 63
-27 -63 193
-194 -192
-194 -193
192 193 194
-195 14
-195 -63
-14 63 195
-196 28
-196 63
-28 -63 196
-197 -195
-197 -196
195 196 197
-198 15
-198 -63
-15 63 198
-199 29
-199 63
-29 -63 199
-200 -198
-200 -199
198 199 200
-201 31
-201 63
-31 -63 201
-202 -156
-202 -201
156 201 202
-203 32
-203 63
-32 -63 203
-204 -159
-204 -203
159 203 204
-205 33
-205 63
-33 -63 205
-206 -162
-206 -205
162 205 206
-207 34
-207 63
-34 -63 207
-208 -165
-208 -207
165 207 208
-209 35
-209 63
-35 -63 209
-210 -168
-210 -209
168 209 210
-211 36
-211 63
-36 -63 211
-212 -171
-212 -211
171 211 212
-213 37
-213 63
-37 -63 213
-214 -174
-214 -213
174 213 214
-215 38
-215 63
-38 -63 215
-216 -177
-216 -215
177 215 216
-217 39
-217 63
-39 -63 217
-218 -180
-218 -217
180 217 218
-219 40
-219 63
-40 -63 219
-220 -183
-220 -219
183 219 220
-221 41
-221 63
-41 -63 221
-222 -186
-222 -221
186 221 222
-223 42
-223 63
-42 -63 223
-224 -189
-224 -223
189 223 224
-225 43
-225 63
-43 -63 225
-226 -192
-226 -225
192 225 226
-227 44
-227 63
-44 -63 227
-228 -195
-228 -227
195 227 228
-229 45
-229 63
-45 -63 229
-230 -198
-230 -229
198 229 230
-231 -46
-231 155
46 -155 231
-232 -139
-232 -154
139 154 232
-232
